1-73-62-28-61-69-36-71-60-70-20-37-5-15-57-13-54-19-59-14-35-8-46-4-76-75-68-6-51-17-40-12-58-72-39-9-32-44-3-16-63-1
1-22-64-42-43-41-56-23-49-24-18-50-25-55-31-10-38-65-66-11-53-7-26-67-34-52-27-45-29-48-47-21-74-30-2-33-1